16 32
1 2 3
1 5 2
2 3 5
2 6 4
3 4 2
3 7 2
4 8 4
5 6 2
5 9 4
6 7 5
6 10 2
7 8 3
7 11 3
8 12 5
9 10 1
9 13 3
10 11 3
10 14 3
11 12 4
11 15 2
12 16 1
13 14 5
14 15 5
15 16 5
1 13 3
2 14 5
3 15 5
4 16 1
1 4 2
5 8 3
9 12 4
13 16 4
